outputs/case_8.model.txt
order_prohibit_asset_disposition = True
notify_registration_authority = True
notify_economic_ministry = True
violation_flag = True
penalty_measures_issued = False
restrict_investment = False
suspend_partial_business = False
penalty_measure_7 = True
non_special_penalty_measures = False
followup_completed = False
revoke_permit_followup = False
revoke_permit = False
penalty_measures = False
penalty_measure_4 = True
order_close_branch_or_department = False
order_dispose_subsidiary_shares = False
revoke_statutory_meeting_resolution = False
penalty_measure_1 = False
violation = True
penalty_measure_2 = False
penalty_measure_6 = False
penalty = False
non_special_violation_flag = False
non_special_violation = False
penalty_measure_5 = False
order_provision_or_capital_increase = False
suspend_subsidiary_business = False
director_supervisor_registration_revoked = True
other_necessary_measures = True
order_provision_amount = 0
penalty_measure_8 = False
order_remove_manager_staff = False
penalty_measure_3 = False
business_guidance_required = False
business_guidance_needed = False
penalty_measure_9 = True
remove_director_supervisor = True